;(set-option :produce-unsat-cores true )
(set-logic ALL_SUPPORTED )
(declare-sort A$ 0 )
(declare-sort A_set$ 0 )
(declare-sort A_bool_fun$ 0 )
(declare-sort A_llist_set$ 0 )
(declare-sort A_llist_bool_fun$ 0 )
(declare-sort A_llist_llist_set$ 0 )
(declare-sort A_llist_a_bool_fun_fun$ 0 )
(declare-sort A_llist_llist_bool_fun$ 0 )
(declare-sort A_bool_fun_a_bool_fun_fun$ 0 )
(declare-sort A_llist_llist_a_llist_bool_fun_fun$ 0 )
(declare-sort A_llist_bool_fun_a_llist_bool_fun_fun$ 0 )
(declare-sort A_llist_llist_llist_a_llist_llist_bool_fun_fun$ 0 )
(declare-sort A_llist$ 0)
(declare-sort A_llist_llist$ 0)
(declare-sort A_llist_llist_llist$ 0)
(declare-fun lNil$ ()A_llist$)
(declare-fun lhd$ (A_llist$)A$)
(declare-fun ltl$ (A_llist$)A_llist$)
(declare-fun lCons$ (A$ A_llist$ )A_llist$)
(declare-fun lNil$a ()A_llist_llist$)
(declare-fun lhd$a (A_llist_llist$)A_llist$)
(declare-fun ltl$a (A_llist_llist$)A_llist_llist$)
(declare-fun lCons$a (A_llist$ A_llist_llist$ )A_llist_llist$)
(declare-fun lNil$b ()A_llist_llist_llist$)
(declare-fun lhd$b (A_llist_llist_llist$)A_llist_llist$)
(declare-fun ltl$b (A_llist_llist_llist$)A_llist_llist_llist$)
(declare-fun lCons$b (A_llist_llist$ A_llist_llist_llist$ )A_llist_llist_llist$)
(declare-fun uu$ ()A_llist_bool_fun$ )
(declare-fun uua$ ()A_bool_fun$ )
(declare-fun uub$ ()A_llist_bool_fun$ )
(declare-fun uuc$ (A_bool_fun$ )A_bool_fun_a_bool_fun_fun$ )
(declare-fun uud$ (A_llist_bool_fun$ )A_llist_bool_fun_a_llist_bool_fun_fun$ )
(declare-fun uue$ ()A_bool_fun$ )
(declare-fun uuf$ ()A_llist_bool_fun$ )
(declare-fun uug$ (A_llist_llist_bool_fun$ )A_llist_llist_llist_a_llist_llist_bool_fun_fun$ )
(declare-fun uuh$ (A_bool_fun$ )A_llist_a_bool_fun_fun$ )
(declare-fun uui$ (A_llist_bool_fun$ )A_llist_llist_a_llist_bool_fun_fun$ )
(declare-fun xss$ ()A_llist_llist$ )
(declare-fun lset$ (A_llist_llist_llist$ )A_llist_llist_set$ )
(declare-fun lnull$ (A_llist$ )Bool )
(declare-fun lset$a (A_llist_llist$ )A_llist_set$ )
(declare-fun lset$b (A_llist$ )A_set$ )
(declare-fun lnull$a (A_llist_llist$ )Bool )
(declare-fun lnull$b (A_llist_llist_llist$ )Bool )
(declare-fun member$ (A_llist_llist$ A_llist_llist_set$ )Bool )
(declare-fun collect$ (A_llist_llist_bool_fun$ )A_llist_llist_set$ )
(declare-fun fun_app$ (A_llist_bool_fun$ A_llist$ )Bool )
(declare-fun lconcat$ (A_llist_llist$ )A_llist$ )
(declare-fun lfilter$ (A_llist_bool_fun$ A_llist_llist$ )A_llist_llist$ )
(declare-fun member$a (A_llist$ A_llist_set$ )Bool )
(declare-fun member$b (A$ A_set$ )Bool )
(declare-fun collect$a (A_bool_fun$ )A_set$ )
(declare-fun collect$b (A_llist_bool_fun$ )A_llist_set$ )
(declare-fun fun_app$a (A_llist_llist_bool_fun$ A_llist_llist$ )Bool )
(declare-fun fun_app$b (A_llist_llist_llist_a_llist_llist_bool_fun_fun$ A_llist_llist_llist$ )A_llist_llist_bool_fun$ )
(declare-fun fun_app$c (A_llist_llist_a_llist_bool_fun_fun$ A_llist_llist$ )A_llist_bool_fun$ )
(declare-fun fun_app$d (A_bool_fun$ A$ )Bool )
(declare-fun fun_app$e (A_llist_a_bool_fun_fun$ A_llist$ )A_bool_fun$ )
(declare-fun fun_app$f (A_llist_bool_fun_a_llist_bool_fun_fun$ A_llist_bool_fun$ )A_llist_bool_fun$ )
(declare-fun fun_app$g (A_bool_fun_a_bool_fun_fun$ A_bool_fun$ )A_bool_fun$ )
(declare-fun lfilter$a (A_bool_fun$ A_llist$ )A_llist$ )
(declare-fun lfilter$b (A_llist_llist_bool_fun$ A_llist_llist_llist$ )A_llist_llist_llist$ )
(assert (! (forall ((?v0 A_llist$ ))(! (= (fun_app$ uu$ ?v0 )(not (lnull$ ?v0 ))):pattern ((fun_app$ uu$ ?v0 )))):named a0 ))
(assert (! (forall ((?v0 A_llist_llist_bool_fun$ )(?v1 A_llist_llist_llist$ )(?v2 A_llist_llist$ ))(! (= (fun_app$a (fun_app$b (uug$ ?v0 )?v1 )?v2 )(and (member$ ?v2 (lset$ ?v1 ))(fun_app$a ?v0 ?v2 ))):pattern ((fun_app$a (fun_app$b (uug$ ?v0 )?v1 )?v2 )))):named a1 ))
(assert (! (forall ((?v0 A_llist_bool_fun$ )(?v1 A_llist_llist$ )(?v2 A_llist$ ))(! (= (fun_app$ (fun_app$c (uui$ ?v0 )?v1 )?v2 )(and (member$a ?v2 (lset$a ?v1 ))(fun_app$ ?v0 ?v2 ))):pattern ((fun_app$ (fun_app$c (uui$ ?v0 )?v1 )?v2 )))):named a2 ))
(assert (! (forall ((?v0 A_bool_fun$ )(?v1 A_llist$ )(?v2 A$ ))(! (= (fun_app$d (fun_app$e (uuh$ ?v0 )?v1 )?v2 )(and (member$b ?v2 (lset$b ?v1 ))(fun_app$d ?v0 ?v2 ))):pattern ((fun_app$d (fun_app$e (uuh$ ?v0 )?v1 )?v2 )))):named a3 ))
(assert (! (forall ((?v0 A_llist_bool_fun$ )(?v1 A_llist_bool_fun$ )(?v2 A_llist$ ))(! (= (fun_app$ (fun_app$f (uud$ ?v0 )?v1 )?v2 )(and (fun_app$ ?v0 ?v2 )(fun_app$ ?v1 ?v2 ))):pattern ((fun_app$ (fun_app$f (uud$ ?v0 )?v1 )?v2 )))):named a4 ))
(assert (! (forall ((?v0 A_bool_fun$ )(?v1 A_bool_fun$ )(?v2 A$ ))(! (= (fun_app$d (fun_app$g (uuc$ ?v0 )?v1 )?v2 )(and (fun_app$d ?v0 ?v2 )(fun_app$d ?v1 ?v2 ))):pattern ((fun_app$d (fun_app$g (uuc$ ?v0 )?v1 )?v2 )))):named a5 ))
(assert (! (forall ((?v0 A_llist$ ))(! (= (fun_app$ uuf$ ?v0 )false ):pattern ((fun_app$ uuf$ ?v0 )))):named a6 ))
(assert (! (forall ((?v0 A$ ))(! (= (fun_app$d uue$ ?v0 )false ):pattern ((fun_app$d uue$ ?v0 )))):named a7 ))
(assert (! (forall ((?v0 A_llist$ ))(! (= (fun_app$ uub$ ?v0 )true ):pattern ((fun_app$ uub$ ?v0 )))):named a8 ))
(assert (! (forall ((?v0 A$ ))(! (= (fun_app$d uua$ ?v0 )true ):pattern ((fun_app$d uua$ ?v0 )))):named a9 ))
(assert (! (not (= (lconcat$ (lfilter$ uu$ xss$ ))(lconcat$ xss$ ))):named a10 ))
(assert (! (forall ((?v0 A_bool_fun$ )(?v1 A_llist$ ))(= (lfilter$a ?v0 (lfilter$a ?v0 ?v1 ))(lfilter$a ?v0 ?v1 ))):named a11 ))
(assert (! (forall ((?v0 A_llist_bool_fun$ )(?v1 A_llist_llist$ ))(= (lfilter$ ?v0 (lfilter$ ?v0 ?v1 ))(lfilter$ ?v0 ?v1 ))):named a12 ))
(assert (! (forall ((?v0 A_llist$ ))(= (lfilter$a uua$ ?v0 )?v0 )):named a13 ))
(assert (! (forall ((?v0 A_llist_llist$ ))(= (lfilter$ uub$ ?v0 )?v0 )):named a14 ))
(assert (! (forall ((?v0 A_bool_fun$ )(?v1 A_bool_fun$ )(?v2 A_llist$ ))(= (lfilter$a ?v0 (lfilter$a ?v1 ?v2 ))(lfilter$a (fun_app$g (uuc$ ?v0 )?v1 )?v2 ))):named a15 ))
(assert (! (forall ((?v0 A_llist_bool_fun$ )(?v1 A_llist_bool_fun$ )(?v2 A_llist_llist$ ))(= (lfilter$ ?v0 (lfilter$ ?v1 ?v2 ))(lfilter$ (fun_app$f (uud$ ?v0 )?v1 )?v2 ))):named a16 ))
(assert (! (forall ((?v0 A_llist$ )(?v1 A_llist_llist$ ))(=> (and (=> (or (lnull$ ?v0 )(lnull$a ?v1 ))false )(=> (and (not (lnull$ ?v0 ))(not (lnull$a ?v1 )))false ))false )):named a17 ))
(assert (! (forall ((?v0 A_llist_llist$ )(?v1 A_llist$ ))(=> (and (=> (or (lnull$a ?v0 )(lnull$ ?v1 ))false )(=> (and (not (lnull$a ?v0 ))(not (lnull$ ?v1 )))false ))false )):named a18 ))
(assert (! (forall ((?v0 A_llist_llist$ )(?v1 A_llist_llist$ ))(=> (and (=> (or (lnull$a ?v0 )(lnull$a ?v1 ))false )(=> (and (not (lnull$a ?v0 ))(not (lnull$a ?v1 )))false ))false )):named a19 ))
(assert (! (forall ((?v0 A_llist$ )(?v1 A_llist$ ))(=> (and (=> (or (lnull$ ?v0 )(lnull$ ?v1 ))false )(=> (and (not (lnull$ ?v0 ))(not (lnull$ ?v1 )))false ))false )):named a20 ))
(assert (! (forall ((?v0 A_llist_llist_set$ ))(=> (and (=> (forall ((?v1 A_llist_llist$ ))(=> (member$ ?v1 ?v0 )(lnull$a ?v1 )))false )(=> (not (forall ((?v1 A_llist_llist$ ))(=> (member$ ?v1 ?v0 )(lnull$a ?v1 ))))false ))false )):named a21 ))
(assert (! (forall ((?v0 A_llist_set$ ))(=> (and (=> (forall ((?v1 A_llist$ ))(=> (member$a ?v1 ?v0 )(lnull$ ?v1 )))false )(=> (not (forall ((?v1 A_llist$ ))(=> (member$a ?v1 ?v0 )(lnull$ ?v1 ))))false ))false )):named a22 ))
(assert (! (forall ((?v0 A_llist_llist$ )(?v1 A_llist_llist$ ))(=> (and (=> (and (lnull$a ?v0 )(lnull$a ?v1 ))false )(=> (or (not (lnull$a ?v0 ))(not (lnull$a ?v1 )))false ))false )):named a23 ))
(assert (! (forall ((?v0 A_llist$ )(?v1 A_llist$ ))(=> (and (=> (and (lnull$ ?v0 )(lnull$ ?v1 ))false )(=> (or (not (lnull$ ?v0 ))(not (lnull$ ?v1 )))false ))false )):named a24 ))
(assert (! (forall ((?v0 A_llist_llist$ ))(=> (and (=> (lnull$a ?v0 )false )(=> (not (lnull$a ?v0 ))false ))false )):named a25 ))
(assert (! (forall ((?v0 A_llist$ ))(=> (and (=> (lnull$ ?v0 )false )(=> (not (lnull$ ?v0 ))false ))false )):named a26 ))
(assert (! (forall ((?v0 A_llist_llist_bool_fun$ )(?v1 A_llist_llist_llist$ ))(= (lnull$b (lfilter$b ?v0 ?v1 ))(forall ((?v2 A_llist_llist$ ))(=> (member$ ?v2 (lset$ ?v1 ))(not (fun_app$a ?v0 ?v2 )))))):named a27 ))
(assert (! (forall ((?v0 A_llist_bool_fun$ )(?v1 A_llist_llist$ ))(= (lnull$a (lfilter$ ?v0 ?v1 ))(forall ((?v2 A_llist$ ))(=> (member$a ?v2 (lset$a ?v1 ))(not (fun_app$ ?v0 ?v2 )))))):named a28 ))
(assert (! (forall ((?v0 A_bool_fun$ )(?v1 A_llist$ ))(= (lnull$ (lfilter$a ?v0 ?v1 ))(forall ((?v2 A$ ))(=> (member$b ?v2 (lset$b ?v1 ))(not (fun_app$d ?v0 ?v2 )))))):named a29 ))
(assert (! (forall ((?v0 A_llist$ ))(= (lfilter$a uue$ ?v0 )lNil$ )):named a30 ))
(assert (! (forall ((?v0 A_llist_llist$ ))(= (lfilter$ uuf$ ?v0 )lNil$a )):named a31 ))
(assert (! (forall ((?v0 A_llist_llist_bool_fun$ )(?v1 A_llist_llist_llist$ ))(= (lset$ (lfilter$b ?v0 ?v1 ))(collect$ (fun_app$b (uug$ ?v0 )?v1 )))):named a32 ))
(assert (! (forall ((?v0 A_bool_fun$ )(?v1 A_llist$ ))(= (lset$b (lfilter$a ?v0 ?v1 ))(collect$a (fun_app$e (uuh$ ?v0 )?v1 )))):named a33 ))
(assert (! (forall ((?v0 A_llist_bool_fun$ )(?v1 A_llist_llist$ ))(= (lset$a (lfilter$ ?v0 ?v1 ))(collect$b (fun_app$c (uui$ ?v0 )?v1 )))):named a34 ))
(check-sat )
;(get-unsat-core )
